coords = array2d(1..60, 1..2, [997, 296, 795, 127, 703, 92, 401, 326, 651, 98,
    680, 210, 658, 730, 802, 957, 712, 548, 111, 854, 119, 459, 952,
    88, 779, 826, 162, 555, 645, 831, 323, 547, 72, 93, 135, 840, 99,
    181, 338, 149, 318, 730, 197, 913, 592, 718, 2, 304, 18, 620, 242,
    166, 481, 584, 665, 649, 507, 975, 347, 474, 277, 639, 408, 807,
    541, 211, 270, 664, 640, 72, 830, 541, 309, 875, 645, 611, 601,
    515, 332, 942, 699, 987, 960, 32, 555, 743, 934, 243, 102, 644,
    562, 349, 221, 933, 492, 585, 497, 560, 620, 588, 34, 226, 467,
    673, 410, 214, 286, 170, 415, 86, 693, 633, 193, 918, 62, 6, 447,
    815, 964, 277]);

n = 60;

